Route #1: 7 19 54 13 57 15 27 52
Route #2: 34 46 8 59 14 35
Route #3: 53 11 38 10 58
Route #4: 12 39 9 25 55 18 50
Route #5: 32 44 3 24 49 56 23
Route #6: 63 1 43 41 42 64 22 61
Route #7: 21 47 36 60 20 37 5
Route #8: 4 45 29 48 30
Route #9: 2 28 62 33 16
Route #10: 6 51 17 40 31 26
Cost 854